c "821654.clq"
p edge 252 3776
e 1 17
e 1 18
e 1 19
e 1 20
e 1 22
e 1 23
e 1 24
e 1 30
e 1 32
e 1 35
e 1 39
e 1 46
e 1 49
e 1 55
e 1 56
e 1 59
e 1 60
e 1 67
e 1 82
e 1 87
e 1 90
e 1 92
e 1 99
e 1 113
e 1 130
e 1 131
e 1 155
e 1 171
e 1 174
e 1 192
e 1 198
e 1 205
e 1 215
e 2 17
e 2 18
e 2 19
e 2 20
e 2 21
e 2 22
e 2 23
e 2 24
e 2 26
e 2 28
e 2 30
e 2 31
e 2 32
e 2 34
e 2 35
e 2 36
e 2 37
e 2 38
e 2 39
e 2 40
e 2 41
e 2 42
e 2 43
e 2 46
e 2 50
e 2 53
e 2 55
e 2 59
e 2 61
e 2 65
e 2 73
e 2 74
e 2 75
e 2 77
e 2 84
e 2 107
e 2 112
e 2 117
e 2 130
e 2 153
e 2 159
e 2 167
e 2 174
e 2 181
e 2 187
e 2 206
e 2 216
e 2 219
e 2 226
e 3 17
e 3 18
e 3 19
e 3 20
e 3 21
e 3 25
e 3 28
e 3 29
e 3 30
e 3 31
e 3 38
e 3 39
e 3 41
e 3 45
e 3 49
e 3 59
e 3 62
e 3 74
e 3 75
e 3 81
e 3 82
e 3 97
e 3 103
e 3 109
e 3 113
e 3 131
e 3 132
e 3 133
e 3 137
e 3 151
e 3 154
e 3 156
e 3 162
e 3 166
e 3 195
e 3 196
e 3 200
e 3 217
e 3 229
e 3 231
e 3 248
e 4 17
e 4 18
e 4 19
e 4 20
e 4 22
e 4 23
e 4 27
e 4 28
e 4 29
e 4 32
e 4 34
e 4 38
e 4 41
e 4 42
e 4 44
e 4 46
e 4 47
e 4 57
e 4 77
e 4 86
e 4 89
e 4 96
e 4 99
e 4 122
e 4 150
e 4 152
e 4 166
e 4 172
e 4 186
e 4 193
e 4 211
e 4 216
e 4 220
e 4 224
e 4 240
e 5 17
e 5 18
e 5 19
e 5 21
e 5 23
e 5 24
e 5 26
e 5 27
e 5 28
e 5 29
e 5 30
e 5 34
e 5 37
e 5 50
e 5 52
e 5 64
e 5 68
e 5 69
e 5 76
e 5 77
e 5 86
e 5 88
e 5 92
e 5 94
e 5 99
e 5 102
e 5 103
e 5 117
e 5 121
e 5 122
e 5 123
e 5 124
e 5 127
e 5 134
e 5 135
e 5 140
e 5 152
e 5 168
e 5 174
e 5 177
e 5 193
e 5 195
e 5 200
e 5 213
e 5 230
e 5 233
e 5 243
e 5 244
e 5 248
e 5 249
e 6 17
e 6 18
e 6 19
e 6 20
e 6 22
e 6 25
e 6 33
e 6 34
e 6 39
e 6 43
e 6 45
e 6 46
e 6 47
e 6 50
e 6 52
e 6 56
e 6 58
e 6 63
e 6 66
e 6 67
e 6 76
e 6 80
e 6 88
e 6 92
e 6 107
e 6 110
e 6 112
e 6 123
e 6 125
e 6 144
e 6 158
e 6 165
e 6 182
e 6 183
e 6 201
e 6 202
e 6 222
e 6 237
e 6 242
e 6 252
e 7 17
e 7 18
e 7 20
e 7 21
e 7 26
e 7 28
e 7 30
e 7 32
e 7 38
e 7 40
e 7 44
e 7 51
e 7 54
e 7 57
e 7 83
e 7 88
e 7 90
e 7 91
e 7 98
e 7 103
e 7 104
e 7 112
e 7 119
e 7 120
e 7 125
e 7 127
e 7 134
e 7 140
e 7 144
e 7 147
e 7 167
e 7 175
e 7 185
e 7 187
e 7 194
e 7 195
e 7 207
e 7 209
e 7 229
e 7 230
e 7 236
e 7 237
e 7 244
e 8 17
e 8 18
e 8 19
e 8 20
e 8 21
e 8 22
e 8 24
e 8 25
e 8 26
e 8 30
e 8 33
e 8 35
e 8 36
e 8 40
e 8 43
e 8 44
e 8 45
e 8 51
e 8 52
e 8 58
e 8 61
e 8 63
e 8 72
e 8 74
e 8 75
e 8 85
e 8 91
e 8 94
e 8 96
e 8 97
e 8 99
e 8 108
e 8 110
e 8 113
e 8 122
e 8 124
e 8 143
e 8 161
e 8 168
e 8 172
e 8 175
e 8 184
e 8 206
e 8 207
e 8 210
e 8 217
e 8 220
e 8 222
e 8 229
e 8 244
e 9 17
e 9 18
e 9 19
e 9 20
e 9 21
e 9 22
e 9 23
e 9 25
e 9 28
e 9 29
e 9 30
e 9 31
e 9 32
e 9 36
e 9 37
e 9 38
e 9 47
e 9 49
e 9 56
e 9 58
e 9 71
e 9 85
e 9 95
e 9 101
e 9 107
e 9 111
e 9 127
e 9 129
e 9 149
e 9 150
e 9 156
e 9 164
e 9 169
e 9 171
e 9 174
e 9 175
e 9 188
e 9 208
e 9 232
e 10 17
e 10 18
e 10 19
e 10 20
e 10 21
e 10 22
e 10 23
e 10 24
e 10 25
e 10 26
e 10 27
e 10 30
e 10 31
e 10 32
e 10 33
e 10 34
e 10 35
e 10 36
e 10 40
e 10 41
e 10 42
e 10 44
e 10 46
e 10 48
e 10 50
e 10 52
e 10 54
e 10 57
e 10 58
e 10 60
e 10 63
e 10 75
e 10 76
e 10 77
e 10 78
e 10 80
e 10 88
e 10 89
e 10 90
e 10 93
e 10 97
e 10 100
e 10 103
e 10 110
e 10 120
e 10 131
e 10 135
e 10 143
e 10 145
e 10 146
e 10 147
e 10 150
e 10 162
e 10 171
e 10 173
e 10 183
e 10 188
e 10 190
e 10 208
e 10 219
e 10 234
e 10 235
e 10 240
e 10 245
e 10 252
e 11 17
e 11 18
e 11 19
e 11 20
e 11 21
e 11 23
e 11 24
e 11 25
e 11 26
e 11 29
e 11 30
e 11 32
e 11 36
e 11 40
e 11 41
e 11 42
e 11 47
e 11 48
e 11 51
e 11 53
e 11 62
e 11 70
e 11 85
e 11 95
e 11 100
e 11 104
e 11 107
e 11 116
e 11 117
e 11 118
e 11 132
e 11 144
e 11 163
e 11 169
e 11 183
e 11 184
e 11 194
e 11 203
e 11 225
e 11 240
e 12 17
e 12 27
e 12 46
e 12 83
e 12 158
e 12 192
e 12 203
e 12 233
e 13 17
e 13 18
e 13 19
e 13 20
e 13 21
e 13 22
e 13 23
e 13 24
e 13 25
e 13 26
e 13 27
e 13 29
e 13 32
e 13 33
e 13 35
e 13 37
e 13 40
e 13 47
e 13 53
e 13 54
e 13 60
e 13 61
e 13 63
e 13 64
e 13 66
e 13 72
e 13 76
e 13 77
e 13 79
e 13 81
e 13 83
e 13 88
e 13 92
e 13 114
e 13 118
e 13 122
e 13 123
e 13 141
e 13 161
e 13 180
e 13 181
e 13 182
e 13 185
e 13 191
e 13 198
e 13 203
e 13 211
e 13 228
e 13 232
e 13 239
e 14 17
e 14 18
e 14 19
e 14 21
e 14 22
e 14 26
e 14 27
e 14 29
e 14 30
e 14 51
e 14 54
e 14 86
e 14 90
e 14 96
e 14 101
e 14 118
e 14 122
e 14 127
e 14 128
e 14 129
e 14 144
e 14 149
e 14 166
e 14 180
e 14 223
e 14 241
e 14 242
e 15 17
e 15 18
e 15 19
e 15 20
e 15 21
e 15 22
e 15 23
e 15 24
e 15 25
e 15 29
e 15 31
e 15 33
e 15 34
e 15 37
e 15 40
e 15 42
e 15 46
e 15 49
e 15 51
e 15 55
e 15 56
e 15 67
e 15 74
e 15 80
e 15 87
e 15 88
e 15 91
e 15 92
e 15 95
e 15 105
e 15 131
e 15 138
e 15 139
e 15 140
e 15 153
e 15 161
e 15 176
e 15 188
e 15 199
e 15 204
e 15 221
e 15 227
e 15 229
e 15 233
e 15 237
e 15 239
e 15 250
e 16 17
e 16 18
e 16 19
e 16 20
e 16 21
e 16 22
e 16 23
e 16 24
e 16 26
e 16 27
e 16 29
e 16 34
e 16 39
e 16 42
e 16 45
e 16 50
e 16 54
e 16 70
e 16 86
e 16 101
e 16 122
e 16 136
e 16 139
e 16 147
e 16 156
e 16 165
e 16 172
e 16 181
e 16 201
e 16 207
e 16 238
e 17 18
e 17 19
e 17 20
e 17 21
e 17 22
e 17 23
e 17 24
e 17 25
e 17 26
e 17 27
e 17 28
e 17 29
e 17 30
e 17 31
e 17 32
e 17 33
e 17 34
e 17 35
e 17 37
e 17 39
e 17 40
e 17 41
e 17 42
e 17 43
e 17 44
e 17 45
e 17 46
e 17 47
e 17 48
e 17 49
e 17 50
e 17 52
e 17 53
e 17 55
e 17 61
e 17 67
e 17 69
e 17 71
e 17 73
e 17 82
e 17 83
e 17 85
e 17 92
e 17 95
e 17 98
e 17 102
e 17 105
e 17 109
e 17 110
e 17 115
e 17 116
e 17 119
e 17 130
e 17 137
e 17 139
e 17 148
e 17 150
e 17 151
e 17 156
e 17 159
e 17 161
e 17 162
e 17 167
e 17 170
e 17 173
e 17 181
e 17 184
e 17 189
e 17 190
e 17 192
e 17 195
e 17 201
e 17 202
e 17 205
e 17 206
e 17 221
e 17 229
e 17 230
e 17 233
e 17 242
e 17 244
e 17 252
e 18 19
e 18 20
e 18 21
e 18 22
e 18 23
e 18 24
e 18 25
e 18 26
e 18 28
e 18 33
e 18 36
e 18 42
e 18 43
e 18 46
e 18 49
e 18 55
e 18 56
e 18 58
e 18 59
e 18 60
e 18 61
e 18 62
e 18 68
e 18 73
e 18 79
e 18 80
e 18 82
e 18 84
e 18 90
e 18 96
e 18 97
e 18 101
e 18 107
e 18 108
e 18 115
e 18 116
e 18 123
e 18 130
e 18 131
e 18 137
e 18 138
e 18 141
e 18 146
e 18 150
e 18 154
e 18 155
e 18 159
e 18 160
e 18 182
e 18 183
e 18 195
e 18 196
e 18 198
e 18 203
e 18 206
e 18 211
e 18 212
e 18 213
e 18 221
e 18 227
e 18 230
e 18 247
e 19 20
e 19 21
e 19 22
e 19 23
e 19 24
e 19 25
e 19 26
e 19 27
e 19 28
e 19 29
e 19 34
e 19 38
e 19 40
e 19 41
e 19 42
e 19 43
e 19 44
e 19 45
e 19 48
e 19 49
e 19 51
e 19 52
e 19 53
e 19 57
e 19 60
e 19 62
e 19 65
e 19 67
e 19 71
e 19 72
e 19 73
e 19 74
e 19 75
e 19 76
e 19 79
e 19 80
e 19 85
e 19 86
e 19 87
e 19 88
e 19 96
e 19 102
e 19 103
e 19 111
e 19 115
e 19 118
e 19 122
e 19 124
e 19 130
e 19 142
e 19 150
e 19 157
e 19 158
e 19 159
e 19 160
e 19 162
e 19 163
e 19 167
e 19 169
e 19 181
e 19 186
e 19 192
e 19 200
e 19 201
e 19 202
e 19 203
e 19 208
e 19 210
e 19 211
e 19 218
e 19 220
e 19 231
e 19 238
e 19 245
e 19 250
e 19 252
e 20 21
e 20 22
e 20 23
e 20 24
e 20 25
e 20 26
e 20 27
e 20 28
e 20 29
e 20 30
e 20 31
e 20 32
e 20 33
e 20 34
e 20 36
e 20 37
e 20 38
e 20 39
e 20 41
e 20 44
e 20 47
e 20 48
e 20 49
e 20 50
e 20 53
e 20 54
e 20 55
e 20 58
e 20 62
e 20 65
e 20 66
e 20 69
e 20 72
e 20 73
e 20 76
e 20 77
e 20 79
e 20 80
e 20 83
e 20 88
e 20 89
e 20 91
e 20 98
e 20 99
e 20 106
e 20 116
e 20 119
e 20 121
e 20 123
e 20 128
e 20 131
e 20 144
e 20 147
e 20 149
e 20 152
e 20 153
e 20 165
e 20 166
e 20 168
e 20 170
e 20 171
e 20 173
e 20 175
e 20 176
e 20 177
e 20 183
e 20 188
e 20 193
e 20 199
e 20 204
e 20 208
e 20 217
e 20 225
e 21 22
e 21 23
e 21 24
e 21 25
e 21 26
e 21 27
e 21 28
e 21 33
e 21 34
e 21 35
e 21 38
e 21 39
e 21 42
e 21 44
e 21 46
e 21 47
e 21 48
e 21 49
e 21 54
e 21 57
e 21 58
e 21 62
e 21 63
e 21 64
e 21 66
e 21 69
e 21 73
e 21 75
e 21 76
e 21 85
e 21 88
e 21 92
e 21 97
e 21 98
e 21 100
e 21 102
e 21 104
e 21 108
e 21 109
e 21 110
e 21 112
e 21 117
e 21 122
e 21 126
e 21 130
e 21 131
e 21 134
e 21 137
e 21 141
e 21 145
e 21 152
e 21 163
e 21 168
e 21 178
e 21 182
e 21 189
e 21 220
e 21 226
e 21 227
e 21 232
e 21 235
e 21 240
e 21 247
e 21 249
e 21 250
e 22 23
e 22 24
e 22 25
e 22 26
e 22 27
e 22 30
e 22 31
e 22 32
e 22 33
e 22 35
e 22 36
e 22 39
e 22 40
e 22 41
e 22 43
e 22 44
e 22 45
e 22 48
e 22 49
e 22 50
e 22 55
e 22 58
e 22 59
e 22 61
e 22 64
e 22 65
e 22 73
e 22 74
e 22 78
e 22 81
e 22 85
e 22 87
e 22 89
e 22 94
e 22 95
e 22 99
e 22 101
e 22 106
e 22 107
e 22 114
e 22 117
e 22 119
e 22 125
e 22 130
e 22 132
e 22 137
e 22 143
e 22 146
e 22 150
e 22 154
e 22 155
e 22 162
e 22 163
e 22 171
e 22 175
e 22 181
e 22 189
e 22 190
e 22 206
e 22 223
e 22 235
e 22 236
e 22 239
e 22 247
e 23 24
e 23 25
e 23 27
e 23 28
e 23 29
e 23 30
e 23 31
e 23 32
e 23 34
e 23 35
e 23 39
e 23 40
e 23 42
e 23 43
e 23 44
e 23 45
e 23 48
e 23 50
e 23 54
e 23 55
e 23 58
e 23 59
e 23 60
e 23 61
e 23 68
e 23 69
e 23 71
e 23 73
e 23 77
e 23 78
e 23 82
e 23 84
e 23 86
e 23 102
e 23 104
e 23 105
e 23 106
e 23 113
e 23 115
e 23 117
e 23 126
e 23 127
e 23 128
e 23 129
e 23 135
e 23 141
e 23 144
e 23 151
e 23 162
e 23 173
e 23 174
e 23 175
e 23 177
e 23 180
e 23 188
e 23 207
e 23 209
e 23 210
e 23 214
e 23 215
e 23 218
e 23 222
e 23 226
e 23 228
e 23 231
e 23 242
e 23 244
e 23 250
e 24 25
e 24 26
e 24 27
e 24 28
e 24 29
e 24 30
e 24 31
e 24 32
e 24 35
e 24 36
e 24 39
e 24 41
e 24 42
e 24 43
e 24 49
e 24 50
e 24 52
e 24 53
e 24 54
e 24 57
e 24 59
e 24 66
e 24 68
e 24 70
e 24 72
e 24 76
e 24 79
e 24 80
e 24 83
e 24 84
e 24 96
e 24 103
e 24 111
e 24 112
e 24 114
e 24 116
e 24 118
e 24 124
e 24 128
e 24 135
e 24 137
e 24 143
e 24 148
e 24 152
e 24 159
e 24 162
e 24 163
e 24 166
e 24 168
e 24 169
e 24 172
e 24 178
e 24 183
e 24 186
e 24 187
e 24 202
e 24 204
e 24 209
e 24 215
e 24 222
e 24 238
e 24 240
e 24 241
e 24 243
e 24 246
e 24 249
e 24 250
e 24 251
e 25 27
e 25 28
e 25 30
e 25 31
e 25 32
e 25 34
e 25 35
e 25 36
e 25 37
e 25 38
e 25 43
e 25 45
e 25 46
e 25 47
e 25 48
e 25 51
e 25 53
e 25 56
e 25 58
e 25 59
e 25 60
e 25 65
e 25 67
e 25 69
e 25 76
e 25 77
e 25 78
e 25 80
e 25 81
e 25 82
e 25 84
e 25 85
e 25 86
e 25 87
e 25 89
e 25 93
e 25 96
e 25 104
e 25 114
e 25 120
e 25 123
e 25 126
e 25 136
e 25 140
e 25 143
e 25 149
e 25 152
e 25 171
e 25 173
e 25 180
e 25 185
e 25 186
e 25 189
e 25 190
e 25 193
e 25 195
e 25 199
e 25 207
e 25 209
e 25 212
e 25 219
e 25 224
e 25 225
e 25 232
e 25 234
e 25 235
e 25 236
e 25 245
e 26 27
e 26 28
e 26 29
e 26 31
e 26 33
e 26 34
e 26 35
e 26 36
e 26 37
e 26 40
e 26 41
e 26 43
e 26 45
e 26 46
e 26 50
e 26 51
e 26 52
e 26 53
e 26 55
e 26 56
e 26 58
e 26 61
e 26 63
e 26 64
e 26 67
e 26 68
e 26 70
e 26 72
e 26 73
e 26 84
e 26 87
e 26 91
e 26 94
e 26 95
e 26 97
e 26 99
e 26 100
e 26 108
e 26 109
e 26 118
e 26 121
e 26 125
e 26 137
e 26 143
e 26 151
e 26 155
e 26 164
e 26 172
e 26 177
e 26 180
e 26 183
e 26 191
e 26 197
e 26 198
e 26 213
e 26 219
e 26 238
e 26 239
e 26 240
e 26 246
e 26 248
e 26 249
e 26 252
e 27 28
e 27 29
e 27 31
e 27 32
e 27 33
e 27 35
e 27 36
e 27 37
e 27 38
e 27 41
e 27 42
e 27 44
e 27 45
e 27 47
e 27 50
e 27 53
e 27 54
e 27 56
e 27 57
e 27 60
e 27 61
e 27 65
e 27 72
e 27 77
e 27 78
e 27 81
e 27 89
e 27 92
e 27 95
e 27 101
e 27 106
e 27 107
e 27 108
e 27 109
e 27 111
e 27 113
e 27 117
e 27 120
e 27 121
e 27 124
e 27 126
e 27 131
e 27 135
e 27 136
e 27 137
e 27 144
e 27 150
e 27 151
e 27 156
e 27 165
e 27 167
e 27 177
e 27 178
e 27 200
e 27 201
e 27 212
e 27 214
e 27 216
e 27 217
e 27 225
e 27 237
e 27 251
e 28 31
e 28 33
e 28 35
e 28 36
e 28 37
e 28 39
e 28 40
e 28 43
e 28 44
e 28 52
e 28 56
e 28 68
e 28 71
e 28 73
e 28 84
e 28 103
e 28 106
e 28 115
e 28 127
e 28 129
e 28 130
e 28 134
e 28 136
e 28 149
e 28 154
e 28 182
e 28 202
e 28 203
e 28 236
e 28 242
e 29 31
e 29 32
e 29 33
e 29 35
e 29 37
e 29 38
e 29 43
e 29 44
e 29 47
e 29 48
e 29 49
e 29 52
e 29 58
e 29 59
e 29 63
e 29 65
e 29 67
e 29 69
e 29 81
e 29 83
e 29 85
e 29 86
e 29 93
e 29 96
e 29 99
e 29 103
e 29 108
e 29 110
e 29 125
e 29 132
e 29 133
e 29 161
e 29 171
e 29 176
e 29 184
e 29 199
e 29 210
e 29 243
e 29 247
e 30 31
e 30 33
e 30 34
e 30 37
e 30 41
e 30 46
e 30 51
e 30 53
e 30 55
e 30 62
e 30 63
e 30 64
e 30 66
e 30 71
e 30 76
e 30 78
e 30 83
e 30 85
e 30 86
e 30 91
e 30 116
e 30 124
e 30 126
e 30 127
e 30 129
e 30 132
e 30 137
e 30 140
e 30 160
e 30 163
e 30 173
e 30 174
e 30 175
e 30 179
e 30 185
e 30 189
e 30 195
e 30 217
e 30 219
e 30 234
e 30 241
e 30 248
e 30 252
e 31 33
e 31 36
e 31 37
e 31 40
e 31 49
e 31 51
e 31 52
e 31 54
e 31 57
e 31 58
e 31 60
e 31 77
e 31 79
e 31 88
e 31 95
e 31 100
e 31 110
e 31 119
e 31 122
e 31 125
e 31 126
e 31 132
e 31 139
e 31 140
e 31 142
e 31 148
e 31 153
e 31 154
e 31 157
e 31 170
e 31 177
e 31 178
e 31 186
e 31 194
e 31 208
e 31 211
e 31 214
e 31 216
e 31 249
e 32 34
e 32 36
e 32 38
e 32 39
e 32 43
e 32 45
e 32 46
e 32 50
e 32 53
e 32 60
e 32 68
e 32 73
e 32 76
e 32 77
e 32 78
e 32 79
e 32 88
e 32 89
e 32 93
e 32 104
e 32 106
e 32 114
e 32 115
e 32 117
e 32 121
e 32 122
e 32 133
e 32 140
e 32 141
e 32 145
e 32 148
e 32 155
e 32 161
e 32 162
e 32 170
e 32 190
e 32 193
e 32 200
e 32 202
e 32 209
e 32 215
e 32 222
e 32 228
e 32 230
e 32 235
e 32 237
e 32 240
e 32 241
e 33 37
e 33 38
e 33 45
e 33 48
e 33 52
e 33 59
e 33 61
e 33 63
e 33 67
e 33 70
e 33 72
e 33 74
e 33 76
e 33 88
e 33 90
e 33 93
e 33 94
e 33 101
e 33 107
e 33 120
e 33 122
e 33 127
e 33 134
e 33 139
e 33 155
e 33 160
e 33 163
e 33 164
e 33 167
e 33 171
e 33 179
e 33 184
e 33 185
e 33 192
e 33 196
e 33 200
e 33 206
e 33 211
e 33 232
e 33 237
e 33 239
e 33 241
e 34 35
e 34 36
e 34 37
e 34 38
e 34 39
e 34 40
e 34 45
e 34 56
e 34 57
e 34 61
e 34 64
e 34 77
e 34 80
e 34 89
e 34 93
e 34 94
e 34 96
e 34 100
e 34 101
e 34 105
e 34 109
e 34 116
e 34 119
e 34 131
e 34 145
e 34 148
e 34 163
e 34 167
e 34 168
e 34 187
e 34 188
e 34 194
e 34 195
e 34 196
e 34 198
e 34 213
e 34 244
e 34 252
e 35 41
e 35 44
e 35 45
e 35 47
e 35 48
e 35 49
e 35 51
e 35 53
e 35 56
e 35 57
e 35 63
e 35 64
e 35 69
e 35 70
e 35 71
e 35 75
e 35 80
e 35 82
e 35 84
e 35 89
e 35 103
e 35 111
e 35 120
e 35 123
e 35 131
e 35 138
e 35 143
e 35 144
e 35 146
e 35 148
e 35 161
e 35 165
e 35 176
e 35 183
e 35 186
e 35 209
e 35 212
e 35 215
e 35 216
e 35 234
e 35 235
e 36 38
e 36 39
e 36 40
e 36 41
e 36 42
e 36 43
e 36 46
e 36 53
e 36 56
e 36 57
e 36 60
e 36 67
e 36 71
e 36 73
e 36 74
e 36 81
e 36 89
e 36 91
e 36 94
e 36 98
e 36 104
e 36 105
e 36 110
e 36 112
e 36 113
e 36 115
e 36 129
e 36 133
e 36 142
e 36 151
e 36 153
e 36 155
e 36 162
e 36 174
e 36 179
e 36 182
e 36 184
e 36 196
e 36 201
e 36 202
e 36 212
e 36 231
e 36 236
e 36 250
e 37 38
e 37 42
e 37 48
e 37 59
e 37 62
e 37 63
e 37 71
e 37 72
e 37 76
e 37 78
e 37 82
e 37 83
e 37 86
e 37 91
e 37 111
e 37 127
e 37 133
e 37 143
e 37 144
e 37 151
e 37 159
e 37 167
e 37 169
e 37 189
e 37 208
e 37 223
e 37 225
e 37 236
e 37 242
e 37 249
e 38 39
e 38 57
e 38 59
e 38 61
e 38 62
e 38 64
e 38 72
e 38 74
e 38 100
e 38 102
e 38 105
e 38 111
e 38 116
e 38 119
e 38 138
e 38 156
e 38 161
e 38 174
e 38 179
e 38 188
e 38 194
e 38 224
e 38 228
e 38 251
e 39 44
e 39 49
e 39 54
e 39 56
e 39 64
e 39 66
e 39 67
e 39 68
e 39 71
e 39 74
e 39 75
e 39 79
e 39 87
e 39 91
e 39 98
e 39 105
e 39 106
e 39 110
e 39 111
e 39 120
e 39 132
e 39 137
e 39 138
e 39 140
e 39 145
e 39 154
e 39 159
e 39 166
e 39 168
e 39 169
e 39 172
e 39 174
e 39 191
e 39 204
e 39 209
e 39 217
e 39 218
e 39 232
e 39 234
e 39 235
e 39 250
e 40 41
e 40 61
e 40 63
e 40 65
e 40 69
e 40 70
e 40 71
e 40 72
e 40 74
e 40 79
e 40 80
e 40 82
e 40 83
e 40 89
e 40 90
e 40 91
e 40 93
e 40 94
e 40 98
e 40 100
e 40 108
e 40 112
e 40 114
e 40 115
e 40 121
e 40 130
e 40 151
e 40 184
e 40 186
e 40 200
e 40 207
e 40 211
e 40 217
e 40 227
e 40 234
e 40 238
e 41 42
e 41 45
e 41 47
e 41 48
e 41 52
e 41 54
e 41 60
e 41 65
e 41 71
e 41 74
e 41 77
e 41 78
e 41 79
e 41 92
e 41 95
e 41 97
e 41 102
e 41 103
e 41 110
e 41 113
e 41 115
e 41 119
e 41 125
e 41 127
e 41 128
e 41 130
e 41 132
e 41 136
e 41 151
e 41 156
e 41 176
e 41 194
e 41 197
e 41 211
e 41 213
e 41 215
e 41 219
e 41 231
e 41 238
e 41 244
e 41 246
e 42 43
e 42 46
e 42 47
e 42 50
e 42 51
e 42 52
e 42 53
e 42 55
e 42 59
e 42 60
e 42 67
e 42 70
e 42 81
e 42 82
e 42 84
e 42 85
e 42 89
e 42 90
e 42 93
e 42 94
e 42 95
e 42 97
e 42 99
e 42 101
e 42 104
e 42 105
e 42 107
e 42 128
e 42 135
e 42 138
e 42 145
e 42 152
e 42 153
e 42 161
e 42 170
e 42 171
e 42 178
e 42 185
e 42 198
e 42 205
e 42 218
e 42 224
e 43 44
e 43 49
e 43 50
e 43 51
e 43 52
e 43 53
e 43 54
e 43 57
e 43 63
e 43 64
e 43 65
e 43 68
e 43 70
e 43 73
e 43 79
e 43 80
e 43 82
e 43 83
e 43 84
e 43 91
e 43 97
e 43 98
e 43 100
e 43 105
e 43 106
e 43 116
e 43 118
e 43 123
e 43 125
e 43 127
e 43 140
e 43 143
e 43 144
e 43 145
e 43 154
e 43 159
e 43 171
e 43 176
e 43 179
e 43 191
e 43 195
e 43 201
e 43 208
e 43 210
e 43 216
e 43 220
e 43 227
e 43 232
e 43 239
e 44 48
e 44 55
e 44 56
e 44 64
e 44 65
e 44 66
e 44 67
e 44 71
e 44 73
e 44 75
e 44 78
e 44 85
e 44 89
e 44 97
e 44 100
e 44 102
e 44 111
e 44 119
e 44 121
e 44 123
e 44 124
e 44 129
e 44 130
e 44 131
e 44 132
e 44 139
e 44 157
e 44 159
e 44 160
e 44 163
e 44 164
e 44 166
e 44 182
e 44 185
e 44 187
e 44 198
e 44 199
e 44 212
e 44 215
e 44 247
e 44 248
e 44 249
e 45 47
e 45 59
e 45 60
e 45 61
e 45 62
e 45 65
e 45 105
e 45 133
e 45 152
e 45 153
e 45 158
e 45 164
e 45 166
e 45 170
e 45 180
e 45 193
e 45 194
e 45 195
e 45 196
e 45 200
e 45 207
e 45 215
e 45 223
e 45 234
e 45 236
e 45 245
e 45 251
e 46 47
e 46 50
e 46 51
e 46 55
e 46 61
e 46 62
e 46 64
e 46 65
e 46 66
e 46 69
e 46 83
e 46 86
e 46 96
e 46 100
e 46 112
e 46 113
e 46 118
e 46 123
e 46 132
e 46 135
e 46 140
e 46 142
e 46 147
e 46 154
e 46 158
e 46 169
e 46 178
e 46 185
e 46 191
e 46 196
e 46 197
e 46 200
e 46 203
e 46 204
e 46 213
e 46 215
e 46 225
e 46 226
e 46 231
e 46 233
e 46 240
e 46 241
e 47 48
e 47 54
e 47 57
e 47 58
e 47 59
e 47 64
e 47 66
e 47 68
e 47 72
e 47 73
e 47 77
e 47 81
e 47 88
e 47 89
e 47 92
e 47 99
e 47 104
e 47 108
e 47 112
e 47 114
e 47 115
e 47 119
e 47 133
e 47 135
e 47 140
e 47 143
e 47 147
e 47 149
e 47 150
e 47 161
e 47 174
e 47 175
e 47 194
e 47 204
e 47 220
e 47 223
e 47 237
e 47 243
e 48 52
e 48 55
e 48 56
e 48 57
e 48 58
e 48 62
e 48 66
e 48 69
e 48 70
e 48 72
e 48 74
e 48 84
e 48 86
e 48 91
e 48 103
e 48 104
e 48 106
e 48 111
e 48 133
e 48 148
e 48 165
e 48 172
e 48 207
e 48 214
e 48 219
e 48 226
e 48 227
e 48 249
e 49 51
e 49 58
e 49 60
e 49 61
e 49 64
e 49 66
e 49 74
e 49 86
e 49 95
e 49 99
e 49 102
e 49 119
e 49 138
e 49 139
e 49 140
e 49 147
e 49 148
e 49 155
e 49 159
e 49 170
e 49 178
e 49 182
e 49 186
e 49 188
e 49 196
e 49 208
e 49 214
e 49 226
e 49 227
e 49 246
e 49 250
e 50 51
e 50 59
e 50 62
e 50 69
e 50 70
e 50 71
e 50 72
e 50 79
e 50 80
e 50 100
e 50 101
e 50 121
e 50 128
e 50 144
e 50 155
e 50 157
e 50 171
e 50 172
e 50 177
e 50 181
e 50 203
e 50 210
e 50 219
e 50 236
e 51 54
e 51 55
e 51 62
e 51 66
e 51 76
e 51 89
e 51 98
e 51 101
e 51 107
e 51 116
e 51 120
e 51 131
e 51 133
e 51 148
e 51 149
e 51 152
e 51 160
e 51 165
e 51 183
e 51 189
e 51 206
e 51 222
e 51 238
e 52 56
e 52 66
e 52 84
e 52 87
e 52 90
e 52 91
e 52 105
e 52 119
e 52 132
e 52 142
e 52 172
e 52 175
e 52 176
e 52 189
e 52 205
e 52 216
e 52 218
e 52 228
e 52 231
e 52 244
e 52 245
e 53 63
e 53 68
e 53 71
e 53 92
e 53 96
e 53 97
e 53 103
e 53 110
e 53 114
e 53 115
e 53 158
e 53 180
e 53 182
e 53 183
e 53 185
e 53 188
e 53 190
e 53 191
e 53 194
e 53 199
e 53 211
e 53 223
e 53 225
e 53 232
e 53 243
e 53 251
e 53 252
e 54 55
e 54 62
e 54 65
e 54 69
e 54 75
e 54 78
e 54 85
e 54 90
e 54 91
e 54 93
e 54 109
e 54 124
e 54 127
e 54 136
e 54 139
e 54 145
e 54 158
e 54 170
e 54 185
e 54 193
e 54 197
e 54 199
e 54 211
e 54 246
e 54 252
e 55 68
e 55 69
e 55 77
e 55 83
e 55 94
e 55 95
e 55 98
e 55 108
e 55 111
e 55 127
e 55 129
e 55 134
e 55 136
e 55 144
e 55 146
e 55 153
e 55 170
e 55 192
e 55 212
e 55 219
e 55 236
e 55 242
e 56 57
e 56 66
e 56 72
e 56 83
e 56 102
e 56 106
e 56 113
e 56 116
e 56 119
e 56 124
e 56 137
e 56 148
e 56 155
e 56 159
e 56 166
e 56 167
e 56 187
e 56 195
e 56 210
e 56 221
e 56 246
e 56 251
e 57 67
e 57 70
e 57 74
e 57 87
e 57 99
e 57 147
e 57 161
e 57 162
e 57 164
e 57 168
e 57 186
e 57 201
e 57 205
e 57 229
e 57 233
e 57 243
e 57 247
e 57 248
e 58 60
e 58 68
e 58 70
e 58 77
e 58 79
e 58 87
e 58 93
e 58 95
e 58 96
e 58 98
e 58 102
e 58 110
e 58 117
e 58 118
e 58 130
e 58 134
e 58 138
e 58 143
e 58 145
e 58 149
e 58 165
e 58 176
e 58 179
e 58 205
e 58 218
e 58 225
e 58 233
e 58 239
e 59 62
e 59 63
e 59 65
e 59 74
e 59 78
e 59 80
e 59 83
e 59 97
e 59 102
e 59 103
e 59 104
e 59 107
e 59 108
e 59 112
e 59 128
e 59 136
e 59 140
e 59 142
e 59 151
e 59 152
e 59 158
e 59 162
e 59 166
e 59 173
e 59 180
e 59 184
e 59 190
e 59 191
e 59 193
e 59 203
e 59 205
e 59 212
e 59 214
e 59 217
e 59 219
e 59 227
e 59 243
e 60 66
e 60 67
e 60 70
e 60 90
e 60 93
e 60 98
e 60 101
e 60 105
e 60 108
e 60 111
e 60 117
e 60 120
e 60 152
e 60 171
e 60 175
e 60 189
e 60 190
e 60 204
e 60 209
e 60 235
e 60 250
e 60 252
e 61 63
e 61 64
e 61 72
e 61 95
e 61 101
e 61 105
e 61 109
e 61 123
e 61 138
e 61 150
e 61 167
e 61 180
e 61 195
e 61 220
e 62 68
e 62 71
e 62 78
e 62 80
e 62 90
e 62 103
e 62 120
e 62 121
e 62 135
e 62 139
e 62 169
e 62 183
e 62 186
e 62 188
e 62 207
e 62 213
e 62 214
e 62 218
e 62 238
e 63 67
e 63 69
e 63 87
e 63 90
e 63 98
e 63 106
e 63 112
e 63 132
e 63 133
e 63 154
e 63 168
e 63 173
e 63 211
e 63 216
e 63 221
e 63 251
e 64 65
e 64 68
e 64 70
e 64 75
e 64 78
e 64 81
e 64 82
e 64 97
e 64 101
e 64 108
e 64 115
e 64 119
e 64 122
e 64 128
e 64 136
e 64 153
e 64 155
e 64 158
e 64 175
e 64 176
e 64 183
e 64 187
e 64 190
e 64 191
e 64 203
e 64 211
e 64 212
e 64 216
e 64 220
e 64 221
e 64 224
e 64 239
e 64 242
e 65 75
e 65 81
e 65 84
e 65 88
e 65 102
e 65 124
e 65 125
e 65 129
e 65 177
e 65 198
e 65 210
e 65 214
e 65 217
e 65 236
e 65 237
e 65 243
e 65 246
e 66 69
e 66 79
e 66 87
e 66 94
e 66 111
e 66 118
e 66 126
e 66 128
e 66 136
e 66 140
e 66 149
e 66 155
e 66 182
e 66 183
e 66 212
e 66 221
e 66 229
e 67 68
e 67 78
e 67 79
e 67 82
e 67 99
e 67 118
e 67 146
e 67 149
e 67 153
e 67 181
e 67 191
e 67 199
e 67 204
e 67 222
e 67 225
e 67 229
e 68 75
e 68 87
e 68 96
e 68 103
e 68 107
e 68 113
e 68 123
e 68 126
e 68 146
e 68 158
e 68 177
e 68 179
e 68 196
e 68 201
e 68 214
e 68 244
e 69 70
e 69 75
e 69 96
e 69 102
e 69 121
e 69 155
e 69 161
e 69 164
e 69 169
e 69 182
e 69 206
e 69 229
e 70 75
e 70 84
e 70 85
e 70 86
e 70 95
e 70 106
e 70 114
e 70 116
e 70 126
e 70 142
e 70 157
e 70 172
e 70 197
e 70 198
e 70 206
e 70 226
e 70 227
e 71 73
e 71 81
e 71 85
e 71 90
e 71 92
e 71 96
e 71 109
e 71 112
e 71 126
e 71 137
e 71 141
e 71 142
e 71 146
e 71 150
e 71 152
e 71 168
e 71 195
e 71 197
e 71 200
e 71 239
e 71 242
e 72 76
e 72 78
e 72 81
e 72 87
e 72 93
e 72 94
e 72 97
e 72 105
e 72 106
e 72 107
e 72 112
e 72 113
e 72 129
e 72 157
e 72 178
e 72 192
e 72 204
e 72 213
e 72 238
e 72 240
e 73 84
e 73 99
e 73 111
e 73 113
e 73 128
e 73 129
e 73 136
e 73 146
e 73 172
e 74 75
e 74 76
e 74 81
e 74 82
e 74 83
e 74 86
e 74 87
e 74 93
e 74 100
e 74 106
e 74 112
e 74 113
e 74 121
e 74 130
e 74 133
e 74 135
e 74 139
e 74 141
e 74 148
e 74 166
e 74 172
e 74 175
e 74 178
e 74 191
e 74 197
e 74 213
e 74 231
e 74 242
e 75 91
e 75 97
e 75 100
e 75 102
e 75 111
e 75 123
e 75 124
e 75 126
e 75 136
e 75 144
e 75 147
e 75 148
e 75 151
e 75 160
e 75 164
e 75 185
e 75 187
e 75 191
e 75 193
e 75 201
e 75 233
e 75 244
e 76 82
e 76 84
e 76 89
e 76 91
e 76 92
e 76 109
e 76 116
e 76 123
e 76 125
e 76 127
e 76 131
e 76 157
e 76 173
e 76 178
e 76 184
e 76 202
e 76 203
e 76 214
e 76 226
e 76 245
e 77 80
e 77 81
e 77 88
e 77 107
e 77 113
e 77 127
e 77 134
e 77 136
e 77 139
e 77 141
e 77 156
e 77 164
e 77 167
e 77 175
e 77 196
e 77 206
e 77 207
e 77 241
e 78 79
e 78 92
e 78 106
e 78 108
e 78 110
e 78 112
e 78 113
e 78 138
e 78 149
e 78 162
e 78 164
e 78 169
e 78 174
e 78 199
e 78 213
e 78 214
e 78 221
e 78 224
e 78 243
e 78 247
e 79 81
e 79 88
e 79 104
e 79 134
e 79 147
e 79 152
e 79 156
e 79 157
e 79 158
e 79 172
e 79 177
e 79 182
e 79 192
e 79 215
e 79 222
e 79 224
e 79 237
e 79 238
e 79 240
e 79 250
e 80 94
e 80 108
e 80 129
e 80 134
e 80 162
e 80 189
e 80 196
e 80 198
e 80 213
e 80 218
e 80 238
e 81 82
e 81 94
e 81 96
e 81 108
e 81 117
e 81 118
e 81 143
e 81 163
e 81 179
e 81 186
e 81 197
e 81 227
e 81 228
e 81 229
e 81 238
e 81 240
e 81 249
e 82 95
e 82 99
e 82 105
e 82 142
e 82 146
e 82 162
e 82 204
e 82 232
e 83 85
e 83 98
e 83 104
e 83 106
e 83 110
e 83 115
e 83 118
e 83 120
e 83 125
e 83 126
e 83 138
e 83 141
e 83 145
e 83 154
e 83 218
e 84 86
e 84 87
e 84 90
e 84 98
e 84 105
e 84 109
e 84 123
e 84 124
e 84 160
e 84 163
e 84 179
e 84 220
e 84 230
e 84 233
e 84 234
e 85 92
e 85 94
e 85 103
e 85 109
e 85 121
e 85 137
e 85 143
e 85 154
e 85 156
e 85 161
e 85 186
e 85 200
e 85 213
e 85 220
e 85 226
e 85 231
e 85 235
e 86 92
e 86 93
e 86 104
e 86 148
e 86 151
e 86 166
e 86 174
e 86 179
e 86 183
e 86 196
e 86 205
e 86 218
e 86 230
e 87 90
e 87 93
e 87 97
e 87 115
e 87 117
e 87 121
e 87 141
e 87 142
e 87 145
e 87 146
e 87 148
e 87 150
e 87 170
e 87 186
e 87 192
e 87 194
e 87 202
e 87 224
e 88 123
e 88 126
e 88 127
e 88 133
e 88 146
e 88 159
e 88 167
e 88 176
e 88 189
e 88 195
e 88 213
e 88 216
e 88 226
e 88 251
e 89 98
e 89 130
e 89 173
e 89 197
e 89 209
e 89 239
e 89 246
e 90 94
e 90 102
e 90 107
e 90 118
e 90 134
e 90 135
e 90 138
e 90 141
e 90 143
e 90 156
e 90 157
e 90 165
e 90 187
e 90 188
e 90 205
e 90 212
e 90 238
e 91 93
e 91 101
e 91 135
e 91 156
e 91 159
e 91 170
e 91 172
e 91 198
e 91 201
e 91 217
e 91 222
e 91 227
e 91 231
e 91 243
e 91 251
e 92 99
e 92 109
e 92 110
e 92 118
e 92 125
e 92 139
e 92 142
e 93 100
e 93 114
e 93 115
e 93 120
e 93 135
e 93 159
e 93 173
e 93 207
e 93 210
e 93 221
e 93 227
e 93 228
e 93 232
e 94 109
e 94 112
e 94 120
e 94 124
e 94 133
e 94 134
e 94 142
e 94 149
e 94 161
e 94 173
e 94 192
e 94 193
e 94 210
e 94 214
e 94 226
e 94 240
e 94 241
e 94 249
e 95 109
e 95 114
e 95 125
e 95 126
e 95 136
e 95 138
e 95 158
e 95 178
e 95 192
e 95 194
e 95 205
e 95 222
e 95 226
e 95 229
e 95 230
e 95 250
e 96 104
e 96 114
e 96 116
e 96 120
e 96 121
e 96 124
e 96 144
e 96 178
e 96 182
e 96 186
e 96 208
e 96 236
e 96 242
e 96 245
e 97 117
e 97 120
e 97 126
e 97 137
e 97 144
e 97 180
e 97 183
e 97 201
e 97 202
e 97 208
e 97 224
e 97 243
e 97 245
e 97 249
e 98 100
e 98 101
e 98 122
e 98 142
e 98 147
e 98 151
e 98 160
e 98 172
e 98 197
e 98 200
e 98 206
e 98 216
e 98 233
e 98 235
e 98 245
e 99 117
e 99 118
e 99 128
e 99 133
e 99 142
e 99 148
e 99 184
e 99 204
e 99 210
e 100 104
e 100 114
e 100 121
e 100 144
e 100 169
e 100 189
e 100 194
e 100 213
e 100 214
e 100 221
e 100 232
e 100 241
e 100 242
e 101 107
e 101 114
e 101 119
e 101 125
e 101 129
e 101 150
e 101 155
e 101 158
e 101 160
e 101 164
e 101 196
e 101 205
e 101 208
e 101 223
e 101 229
e 101 231
e 102 113
e 102 121
e 102 122
e 102 160
e 102 164
e 102 167
e 102 169
e 102 211
e 102 230
e 102 231
e 102 241
e 102 243
e 102 244
e 102 245
e 103 110
e 103 111
e 103 116
e 103 117
e 103 119
e 103 134
e 103 135
e 103 145
e 103 147
e 103 174
e 103 184
e 103 190
e 103 205
e 103 208
e 103 221
e 103 235
e 103 251
e 103 252
e 104 128
e 104 193
e 104 198
e 104 215
e 104 216
e 104 238
e 104 248
e 104 249
e 105 108
e 105 122
e 105 151
e 105 175
e 105 193
e 105 243
e 106 134
e 106 161
e 106 187
e 106 198
e 106 225
e 107 116
e 107 141
e 107 150
e 107 153
e 107 173
e 107 181
e 107 190
e 107 209
e 107 220
e 107 223
e 108 109
e 108 141
e 108 166
e 108 193
e 108 209
e 109 114
e 109 132
e 109 135
e 109 141
e 109 149
e 109 151
e 109 152
e 109 162
e 109 180
e 109 184
e 109 200
e 109 222
e 109 223
e 109 246
e 110 120
e 110 129
e 110 130
e 110 139
e 110 152
e 110 154
e 110 155
e 110 175
e 110 177
e 110 199
e 110 200
e 110 222
e 110 224
e 110 225
e 110 247
e 110 251
e 111 117
e 111 128
e 111 146
e 111 170
e 111 210
e 111 227
e 111 235
e 111 240
e 111 245
e 112 115
e 112 138
e 112 142
e 112 147
e 112 158
e 112 159
e 112 182
e 112 203
e 112 204
e 112 222
e 112 237
e 113 114
e 113 133
e 113 135
e 113 136
e 113 138
e 113 160
e 113 163
e 113 164
e 113 186
e 113 187
e 113 197
e 113 200
e 113 228
e 113 247
e 114 122
e 114 125
e 114 139
e 114 140
e 114 141
e 114 171
e 114 209
e 114 233
e 114 247
e 115 133
e 115 150
e 115 167
e 115 190
e 115 195
e 115 197
e 115 213
e 115 225
e 116 128
e 116 134
e 116 139
e 116 146
e 116 188
e 116 192
e 116 199
e 116 232
e 117 125
e 117 130
e 117 132
e 117 146
e 117 149
e 117 156
e 117 163
e 117 168
e 117 207
e 117 233
e 117 243
e 118 129
e 118 153
e 118 179
e 118 204
e 118 244
e 118 248
e 119 124
e 119 156
e 119 211
e 119 223
e 119 238
e 119 242
e 119 252
e 120 129
e 120 138
e 120 147
e 120 153
e 120 165
e 120 166
e 120 194
e 120 216
e 120 236
e 121 126
e 121 145
e 121 153
e 121 157
e 121 164
e 121 166
e 121 169
e 121 176
e 121 180
e 121 190
e 121 203
e 121 232
e 121 245
e 122 124
e 122 134
e 122 157
e 122 164
e 122 168
e 122 169
e 122 199
e 123 131
e 123 179
e 123 189
e 123 198
e 123 212
e 123 219
e 123 221
e 124 128
e 124 143
e 124 145
e 124 190
e 124 191
e 124 219
e 124 222
e 124 232
e 124 237
e 124 239
e 124 240
e 124 247
e 125 163
e 125 181
e 125 189
e 125 209
e 125 225
e 126 141
e 126 148
e 126 160
e 126 181
e 126 189
e 126 190
e 126 220
e 127 131
e 127 136
e 127 140
e 127 142
e 127 155
e 127 208
e 127 235
e 127 236
e 127 237
e 128 132
e 128 187
e 128 193
e 128 201
e 128 202
e 129 131
e 129 132
e 129 137
e 129 145
e 129 181
e 129 228
e 129 245
e 130 143
e 130 147
e 130 154
e 130 174
e 130 185
e 130 221
e 130 234
e 131 137
e 131 157
e 131 166
e 131 179
e 131 188
e 131 192
e 131 204
e 131 224
e 132 165
e 132 184
e 132 185
e 132 203
e 132 210
e 132 221
e 132 228
e 132 249
e 133 147
e 133 186
e 133 197
e 133 230
e 133 237
e 134 243
e 135 139
e 135 154
e 135 177
e 135 195
e 135 249
e 136 178
e 136 218
e 136 223
e 137 165
e 137 167
e 137 171
e 137 205
e 138 149
e 138 174
e 138 176
e 138 212
e 138 213
e 138 217
e 138 223
e 138 244
e 139 156
e 139 157
e 139 206
e 139 218
e 139 220
e 139 231
e 139 245
e 140 153
e 140 159
e 140 173
e 140 177
e 140 187
e 140 228
e 141 157
e 141 164
e 141 188
e 141 218
e 142 160
e 142 169
e 142 172
e 142 182
e 142 188
e 142 199
e 142 241
e 143 145
e 143 157
e 143 179
e 143 181
e 143 193
e 143 197
e 143 202
e 143 221
e 144 146
e 144 150
e 144 154
e 144 163
e 144 176
e 144 177
e 144 192
e 144 242
e 144 245
e 144 246
e 145 149
e 145 192
e 145 196
e 145 202
e 145 234
e 145 243
e 146 154
e 146 165
e 146 181
e 146 184
e 147 152
e 147 173
e 147 203
e 147 207
e 147 223
e 147 246
e 147 251
e 148 156
e 148 162
e 148 167
e 148 202
e 148 246
e 148 247
e 149 160
e 149 163
e 149 168
e 149 185
e 149 196
e 149 224
e 149 234
e 149 250
e 150 151
e 150 168
e 150 187
e 150 190
e 150 209
e 150 214
e 150 218
e 150 248
e 150 251
e 151 170
e 151 171
e 151 176
e 151 194
e 151 214
e 151 217
e 151 219
e 151 220
e 151 234
e 151 235
e 151 238
e 152 153
e 152 178
e 152 188
e 152 197
e 152 203
e 152 226
e 152 248
e 153 178
e 153 180
e 153 181
e 153 187
e 153 210
e 153 218
e 153 231
e 153 236
e 153 240
e 153 250
e 154 157
e 154 158
e 154 184
e 154 194
e 154 206
e 154 228
e 154 234
e 155 168
e 155 170
e 155 177
e 155 198
e 155 202
e 155 212
e 155 229
e 155 242
e 156 158
e 156 161
e 156 169
e 156 170
e 156 176
e 156 197
e 157 165
e 157 173
e 157 229
e 157 249
e 158 165
e 158 170
e 158 176
e 158 191
e 158 205
e 158 223
e 158 251
e 159 160
e 159 191
e 159 206
e 159 208
e 160 227
e 160 250
e 161 171
e 161 175
e 161 209
e 161 224
e 161 233
e 161 246
e 162 165
e 162 168
e 162 204
e 162 230
e 162 248
e 163 180
e 163 187
e 163 193
e 164 179
e 164 181
e 164 199
e 165 191
e 165 199
e 165 211
e 165 214
e 165 219
e 166 222
e 166 239
e 167 223
e 168 179
e 168 189
e 168 201
e 168 208
e 168 222
e 168 234
e 169 177
e 169 182
e 169 215
e 170 183
e 171 205
e 172 239
e 173 174
e 173 191
e 173 252
e 174 178
e 174 180
e 174 230
e 174 234
e 175 180
e 175 201
e 176 228
e 177 219
e 177 235
e 177 239
e 178 185
e 178 200
e 178 201
e 178 225
e 178 241
e 178 247
e 178 248
e 179 216
e 179 228
e 179 234
e 180 221
e 180 229
e 181 184
e 181 216
e 182 196
e 182 215
e 182 224
e 182 241
e 182 247
e 183 185
e 183 198
e 184 215
e 186 206
e 186 210
e 186 217
e 187 205
e 188 207
e 188 211
e 188 220
e 188 228
e 189 194
e 189 206
e 189 207
e 189 240
e 190 192
e 190 225
e 190 237
e 191 230
e 192 202
e 192 215
e 193 199
e 193 228
e 195 237
e 195 249
e 196 235
e 197 219
e 198 210
e 198 220
e 199 231
e 200 204
e 200 229
e 201 208
e 201 233
e 201 248
e 202 242
e 203 207
e 203 217
e 203 232
e 204 212
e 205 224
e 205 226
e 205 227
e 205 246
e 206 217
e 206 223
e 206 224
e 207 209
e 207 216
e 208 232
e 208 245
e 209 244
e 210 212
e 210 239
e 210 246
e 211 215
e 211 233
e 211 251
e 213 218
e 213 225
e 213 226
e 214 217
e 214 233
e 216 226
e 217 227
e 218 246
e 218 252
e 219 230
e 219 239
e 219 247
e 220 247
e 220 250
e 227 230
e 227 241
e 227 252
e 228 231
e 228 237
e 228 241
e 229 230
e 230 248
e 231 236
e 232 244
e 233 236
e 234 250
e 235 244
e 236 248
e 237 241
e 238 251
e 241 248
e 244 252
